COM=OpenMS_search
USERNAME=Axel
FORMAT=Mascot generic
TOLU=Da
ITOLU=Da
FORMVER=1.01
DB=MSDB
SEARCH=MIS
REPORT=AUTO
CLE=Trypsin
MASS=monoisotopic
INSTRUMENT=Orbitrap
PFA=1
TOL=3
ITOL=0.3
TAXONOMY=All entries
CHARGE=1,2,3

BEGIN IONS
NAME=Acetyl-CoA
PEPMASS=810.1331
RTINSECONDS=575.0
SCANS=1
CHARGE=1+
51.825942993164063 174.216736
53.653957366943359 163.322525
54.908615112304688 169.943253
72.044189453125 475.846954
77.357833862304688 166.700317
83.302978515625 188.926605
85.064537048339844 469.117889
85.438560485839844 201.084366
86.096229553222656 181.029785
88.021141052246094 3233.633789
94.287353515625 188.894028
95.048835754394531 339.760437
97.028144836425781 1352.333252
99.054824829101563 8012.929688
102.036903381347656 351.770813
103.020774841308594 4637.132324
110.295097351074219 176.399353
112.075080871582031 352.614227
113.059379577636719 498.743744
114.03680419921875 2388.684814
114.05450439453125 204.496429
114.2760009765625 197.991043
119.03497314453125 833.743469
120.047103881835938 847.421326
124.07537841796875 1490.600098
125.070472717285156 998.64148
130.031280517578125 475.006317
130.086029052734375 1513.728882
131.196624755859375 302.333649
132.04736328125 4692.040039
136.061355590820313 6.430937e04
140.106643676757813 211.683258
141.047775268554688 554.6203
141.065048217773438 618.78241
142.085830688476563 8239.307617
144.43841552734375 200.772507
148.372695922851563 196.209503
157.03045654296875 354.595978
159.058197021484375 5.456475e04
165.203216552734375 178.971237
166.086013793945313 1466.29126
172.89361572265625 193.682083
174.057769775390625 8682.951172
175.052993774414063 9939.4375
176.994720458984375 377.973602
177.069183349609375 212.321075
183.04095458984375 509.752228
183.05889892578125 310.475403
183.112335205078125 650.129578
184.096267700195313 1.909512e04
185.097640991210938 209.272553
191.08447265625 1172.823731
194.3961181640625 203.833679
201.06866455078125 3.991486e04
202.071807861328125 443.931824
205.063125610351563 768.356384
206.36566162109375 460.248596
217.064071655273438 953.519653
237.172073364257813 184.428375
243.115234375 4235.05957
255.078933715820313 216.978638
260.11871337890625 476.757355
261.12603759765625 8001.68457
271.110870361328125 554.068542
273.125640869140625 1238.568115
279.062408447265625 470.244537
285.12554931640625 2403.283936
287.141571044921875 559.574219
303.136505126953125 2.789161e05
304.139678955078125 3651.771973
312.048065185546875 1491.647705
319.49627685546875 186.740524
330.05908203125 5794.906738
341.091766357421875 1252.543335
357.147491455078125 600.120483
383.10479736328125 331.439636
399.158782958984375 219.076981
410.026092529296875 2279.988281
428.03594970703125 1.221164e04
433.451934814453125 186.351181
454.441162109375 190.257095
486.470550537109375 209.706741
505.0272216796875 219.260239
507.9986572265625 591.182068
END IONS

BEGIN IONS
NAME=ATP
PEPMASS=508.003
RTINSECONDS=245.0
SCANS=2
CHARGE=1+
SMILES=c1nc(c2c(n1)n(cn2)[C@H]3[C@@H]([C@@H]([C@H](O3)CO[P@@](=O)(O)O[P@](=O)(O)OP(=O)(O)O)O)O)N
56.04498291015625 185.625534
57.611202239990234 193.056274
57.682346343994141 193.476669
60.076656341552734 178.365768
63.645168304443359 181.120697
66.308319091796875 173.092407
70.131706237792969 185.717621
72.750984191894531 187.571259
73.091880798339844 179.333084
77.254470825195313 202.912689
82.628143310546875 208.722611
89.780380249023438 392.216919
91.690605163574219 211.082214
94.204078674316406 181.291519
95.715240478515625 176.410446
95.806465148925781 172.351746
96.852378845214844 217.00145
97.023712158203125 225.512802
97.028060913085938 1.109973e04
110.387115478515625 237.85527
119.034759521484375 1366.093994
135.985809326171875 216.28656
136.06146240234375 2.003064e05
136.076919555664063 977.601807
136.080215454101563 1793.049805
136.092437744140625 542.644836
136.10784912109375 214.093994
136.151947021484375 284.994965
137.307968139648438 217.799439
141.412109375 195.053116
176.993881225585938 228.775574
178.071823120117188 1967.865112
185.051971435546875 182.00914
186.487747192382813 206.918991
190.07257080078125 208.610153
214.0723876953125 1803.559326
216.027572631835938 2996.872559
218.69183349609375 205.856628
222.05731201171875 183.267944
230.116683959960938 347.099884
232.082443237304688 5548.677734
234.935394287109375 186.412659
250.09356689453125 1714.897583
258.917388916015625 333.973724
295.99383544921875 2851.816162
304.224700927734375 196.636124
305.59375 216.491898
312.048980712890625 3376.768311
325.061920166015625 182.53418
325.100128173828125 181.447754
330.029693603515625 167.479584
330.05914306640625 9228.420898
348.069793701171875 1.825799e04
392.491851806640625 198.296127
399.110504150390625 193.704712
410.02581787109375 1.043272e04
428.036102294921875 7117.299805
END IONS

BEGIN IONS
NAME=ADP
PEPMASS=428.0367
RTINSECONDS=245.0
SCANS=26
CHARGE=1+
51.605728149414063 209.020859
51.943622589111328 179.793579
53.649044036865234 189.660843
54.617835998535156 174.388321
55.327663421630859 188.090317
55.585842132568359 180.50206
62.252090454101563 167.94603
63.645519256591797 469.548584
65.551811218261719 164.764191
66.259986877441406 178.481323
66.263282775878906 162.683304
70.00146484375 317.693329
70.163429260253906 165.304535
73.907951354980469 209.863678
77.180732727050781 193.713776
80.556655883789063 222.257751
81.815811157226563 191.762787
91.994384765625 198.306625
95.200798034667969 178.402298
95.214813232421875 187.731903
97.028007507324219 8777.037109
98.721450805664063 169.086319
102.099624633789063 168.596863
119.034675598144531 1361.977173
127.20489501953125 218.235107
135.172866821289063 203.940521
136.061386108398438 3.520008e05
137.04449462890625 537.175537
150.0543212890625 192.261322
159.276519775390625 200.505859
169.172653198242188 188.265183
178.071853637695313 3219.50708
178.949859619140625 229.053421
181.910614013671875 203.936157
187.408782958984375 180.246719
189.722518920898438 202.670059
189.7362060546875 201.417984
194.266342163085938 300.397003
195.520904541015625 192.337021
204.08685302734375 336.766846
206.366058349609375 515.889526
214.071456909179688 1679.81543
216.027633666992188 838.15448
228.411788940429688 191.961456
230.112823486328125 302.527985
232.08209228515625 6513.87207
250.092498779296875 2250.603516
268.1026611328125 696.990601
312.048309326171875 837.44812
330.05938720703125 5015.709473
348.0697021484375 3.136437e04
391.527984619140625 199.328644
428.03399658203125 532.106812
END IONS
